WARNING: for repeatability, setting FPU to use double precision
============================[ Problem Statistics ]=============================
|                                                                             |
|  Number of symmetries:          59                                          |
|  Number of invertingSyms:        0                                          |
|  Number of variables:           930                                         |
|  Number of clauses:           13981                                         |
|  Parse time:                   0.00 s                                       |
|                                                                             |
============================[ Search Statistics ]==============================
| Conflicts |          ORIGINAL         |          LEARNT          | Progress |
|           |    Vars  Clauses Literals |    Limit  Clauses Lit/Cl |          |
===============================================================================
|       100 |     930    13981    28830 |     5126      100    331 |  0.000 % |
|       250 |     930    13981    28830 |     5639      257    233 |  0.000 % |
|       475 |     930    13981    28830 |     6202      498    280 |  0.000 % |
|       812 |     930    13981    28830 |     6823      994    236 |  0.000 % |
|      1318 |     930    13981    28830 |     7505     1627    248 |  0.000 % |
|      2077 |     930    13981    28830 |     8256     2515    218 |  0.000 % |
|      3216 |     930    13981    28830 |     9081     3887    198 |  0.000 % |
|      4924 |     930    13981    28830 |     9989     6094    192 |  0.000 % |
|      7486 |     930    13981    28830 |    10988     8861    188 |  0.000 % |
|     11330 |     930    13981    28830 |    12087     7689    188 |  0.000 % |
|     17096 |     930    13981    28830 |    13296     8033    174 |  0.000 % |
|     25745 |     930    13981    28830 |    14626    11807    205 |  0.000 % |
|     38719 |     930    13981    28830 |    16088    11264    377 |  0.000 % |
|     58180 |     930    13981    28830 |    17697     8873    166 |  0.000 % |
|     87372 |     930    13981    28830 |    19467    16568    201 |  0.000 % |
|    131161 |     930    13981    28830 |    21414    18071    198 |  0.000 % |
|    196845 |     930    13981    28830 |    23555    16392    201 |  0.000 % |
|    295371 |     930    13981    28830 |    25911    14569    192 |  0.000 % |
|    443160 |     930    13981    28830 |    28502    23241    362 |  0.000 % |
|    664843 |     930    13981    28830 |    31352    22322    216 |  0.000 % |
|    997368 |     930    13981    28830 |    34487    29804    189 |  0.000 % |
|   1496156 |     930    13981    28830 |    37936    24822    207 |  0.000 % |
|   2244338 |     930    13981    28830 |    41730    27735    479 |  0.000 % |
|   3366612 |     930    13981    28830 |    45903    36463    200 |  0.000 % |
|   5050023 |     930    13981    28830 |    50493    19967    393 |  0.000 % |
|   7575139 |     930    13981    28830 |    55542    39063    418 |  0.000 % |
|  11362814 |     930    13981    28830 |    61096    30607    243 |  0.000 % |
|  17044326 |     930    13981    28830 |    67206    25013    257 |  0.000 % |
===============================================================================
restarts              : 32765
conflicts             : 22130358       (4370 /sec)
symconflicts          : 836173         (165 /sec)
decisions             : 45406985       (0.00 % random) (8966 /sec)
propagations          : 458177493      (90473 /sec)
sympropagations       : 3009586        (594 /sec)
conflict literals     : 6417501738     (5.78 % deleted)
Memory used           : 376.00 MB
CPU time              : 5064.24 s

INDETERMINATE
